Traveling Salesman Problem/TSP_generados/Aleatorio1621103230_5.tsp
NAME: Aleatorio1621103230_5.tsp
COMMENT: Randomly generated scenario
TYPE: TSP
DIMENSION: 5
EDGE_WEIGHT_TYPE: ATT
NODE_COORD_SECTION
1 29.61 34.62
2 7.58 45.31
3 4.11 25.39
4 39.28 46.53
5 39.54 24.31
