Traveling Salesman Problem/TSP_generados/Aleatorio1621103230_5.opt.tour
NAME: Aleatorio1621103230_5.opt.tour
COMMENT: Optimal solution for Aleatorio1621103230_5 (115.59837546874653)
TYPE: TOUR
DIMENSION: 5
TOUR_SECTION
1 3 2 4 5
-1
EOF
